min: c;

c = 3.57656097120644 * u5_t4_h2 + 3.57656097120644 * u5_t7_h2 + 2.82689171720696 * u5_t4_h3 + 2.82689171720696 * u5_t7_h3 + 3.38003951011914 * u5_t1_h4 + 3.38003951011914 * u5_t3_h4 + 3.38003951011914 * u5_t4_h4 + 3.38003951011914 * u5_t7_h4 + 3.4591551543458 * u5_t1_h5 + 3.4591551543458 * u5_t3_h5 + 3.4591551543458 * u5_t4_h5 + 3.4591551543458 * u5_t7_h5 + 4.32422160480527 * u5_t1_h6 + 4.32422160480527 * u5_t3_h6 + 4.32422160480527 * u5_t4_h6 + 4.32422160480527 * u5_t6_h6 + 4.32422160480527 * u5_t7_h6 + 4.52198646425305 * u5_t1_h7 + 4.52198646425305 * u5_t3_h7 + 4.52198646425305 * u5_t4_h7 + 4.52198646425305 * u5_t6_h7 + 5.28087998757586 * u5_t1_h8 + 5.28087998757586 * u5_t3_h8 + 5.28087998757586 * u5_t4_h8 + 5.28087998757586 * u5_t6_h8 + 4.69662027018638 * u5_t1_h9 + 4.69662027018638 * u5_t3_h9 + 4.69662027018638 * u5_t4_h9 + 4.69662027018638 * u5_t6_h9 + 5.63480793828864 * u5_t1_h10 + 5.63480793828864 * u5_t3_h10 + 5.63480793828864 * u5_t4_h10 + 5.63480793828864 * u5_t6_h10 + 4.02442560731653 * u5_t1_h11 + 4.02442560731653 * u5_t3_h11 + 4.02442560731653 * u5_t4_h11 + 4.02442560731653 * u5_t6_h11 + 5.73872391491587 * u5_t1_h12 + 5.73872391491587 * u5_t3_h12 + 5.73872391491587 * u5_t4_h12 + 5.73872391491587 * u5_t6_h12 + 4.72233524009765 * u5_t1_h13 + 4.72233524009765 * u5_t3_h13 + 4.72233524009765 * u5_t4_h13 + 4.72233524009765 * u5_t6_h13 + 4.72233524009765 * u5_t8_h13 + 5.5763063655656 * u5_t1_h14 + 5.5763063655656 * u5_t3_h14 + 5.5763063655656 * u5_t4_h14 + 5.5763063655656 * u5_t6_h14 + 5.5763063655656 * u5_t8_h14 + 6.26881945859791 * u5_t1_h15 + 6.26881945859791 * u5_t3_h15 + 6.26881945859791 * u5_t4_h15 + 6.26881945859791 * u5_t6_h15 + 6.26881945859791 * u5_t8_h15 + 6.26881945859791 * u5_t9_h15 + 5.87796683146621 * u5_t1_h16 + 5.87796683146621 * u5_t3_h16 + 5.87796683146621 * u5_t4_h16 + 5.87796683146621 * u5_t5_h16 + 5.87796683146621 * u5_t6_h16 + 5.87796683146621 * u5_t8_h16 + 5.87796683146621 * u5_t9_h16 + 6.00545156303609 * u5_t1_h17 + 6.00545156303609 * u5_t5_h17 + 6.00545156303609 * u5_t6_h17 + 6.00545156303609 * u5_t8_h17 + 6.00545156303609 * u5_t9_h17 + 6.00545156303609 * u5_t10_h17 + 6.12861041656129 * u5_t1_h18 + 6.12861041656129 * u5_t2_h18 + 6.12861041656129 * u5_t5_h18 + 6.12861041656129 * u5_t6_h18 + 6.12861041656129 * u5_t9_h18 + 6.12861041656129 * u5_t10_h18 + 5.19182043683401 * u5_t1_h19 + 5.19182043683401 * u5_t2_h19 + 5.19182043683401 * u5_t5_h19 + 5.19182043683401 * u5_t9_h19 + 5.19182043683401 * u5_t10_h19 + 5.11985026415675 * u5_t1_h20 + 5.11985026415675 * u5_t2_h20 + 5.11985026415675 * u5_t5_h20 + 5.11985026415675 * u5_t9_h20 + 5.11985026415675 * u5_t10_h20 + 4.78465791532285 * u5_t2_h21 + 4.78465791532285 * u5_t5_h21 + 4.78465791532285 * u5_t9_h21 + 4.78465791532285 * u5_t10_h21 + 5.30087871203658 * u5_t2_h22 + 5.30087871203658 * u5_t5_h22 + 5.30087871203658 * u5_t9_h22 + 5.30087871203658 * u5_t10_h22 + 5.72274668944286 * u5_t5_h23 + 5.72274668944286 * u5_t9_h23 + 5.72274668944286 * u5_t10_h23;
0 <= u5_t1_h4 <= 1;
0 <= u5_t1_h5 <= 1;
0 <= u5_t1_h6 <= 1;
0 <= u5_t1_h7 <= 1;
0 <= u5_t1_h8 <= 1;
0 <= u5_t1_h9 <= 1;
0 <= u5_t1_h10 <= 1;
0 <= u5_t1_h11 <= 1;
0 <= u5_t1_h12 <= 1;
0 <= u5_t1_h13 <= 1;
0 <= u5_t1_h14 <= 1;
0 <= u5_t1_h15 <= 1;
0 <= u5_t1_h16 <= 1;
0 <= u5_t1_h17 <= 1;
0 <= u5_t1_h18 <= 1;
0 <= u5_t1_h19 <= 1;
0 <= u5_t1_h20 <= 1;
u5_t1_h4 + u5_t1_h5 + u5_t1_h6 + u5_t1_h7 + u5_t1_h8 + u5_t1_h9 + u5_t1_h10 + u5_t1_h11 + u5_t1_h12 + u5_t1_h13 + u5_t1_h14 + u5_t1_h15 + u5_t1_h16 + u5_t1_h17 + u5_t1_h18 + u5_t1_h19 + u5_t1_h20 = 1;
0 <= u5_t2_h18 <= 1;
0 <= u5_t2_h19 <= 1;
0 <= u5_t2_h20 <= 1;
0 <= u5_t2_h21 <= 1;
0 <= u5_t2_h22 <= 1;
u5_t2_h18 + u5_t2_h19 + u5_t2_h20 + u5_t2_h21 + u5_t2_h22 = 3;
0 <= u5_t3_h4 <= 1;
0 <= u5_t3_h5 <= 1;
0 <= u5_t3_h6 <= 1;
0 <= u5_t3_h7 <= 1;
0 <= u5_t3_h8 <= 1;
0 <= u5_t3_h9 <= 1;
0 <= u5_t3_h10 <= 1;
0 <= u5_t3_h11 <= 1;
0 <= u5_t3_h12 <= 1;
0 <= u5_t3_h13 <= 1;
0 <= u5_t3_h14 <= 1;
0 <= u5_t3_h15 <= 1;
0 <= u5_t3_h16 <= 1;
u5_t3_h4 + u5_t3_h5 + u5_t3_h6 + u5_t3_h7 + u5_t3_h8 + u5_t3_h9 + u5_t3_h10 + u5_t3_h11 + u5_t3_h12 + u5_t3_h13 + u5_t3_h14 + u5_t3_h15 + u5_t3_h16 = 1;
0 <= u5_t4_h2 <= 1;
0 <= u5_t4_h3 <= 1;
0 <= u5_t4_h4 <= 1;
0 <= u5_t4_h5 <= 1;
0 <= u5_t4_h6 <= 1;
0 <= u5_t4_h7 <= 1;
0 <= u5_t4_h8 <= 1;
0 <= u5_t4_h9 <= 1;
0 <= u5_t4_h10 <= 1;
0 <= u5_t4_h11 <= 1;
0 <= u5_t4_h12 <= 1;
0 <= u5_t4_h13 <= 1;
0 <= u5_t4_h14 <= 1;
0 <= u5_t4_h15 <= 1;
0 <= u5_t4_h16 <= 1;
u5_t4_h2 + u5_t4_h3 + u5_t4_h4 + u5_t4_h5 + u5_t4_h6 + u5_t4_h7 + u5_t4_h8 + u5_t4_h9 + u5_t4_h10 + u5_t4_h11 + u5_t4_h12 + u5_t4_h13 + u5_t4_h14 + u5_t4_h15 + u5_t4_h16 = 3;
0 <= u5_t5_h16 <= 1;
0 <= u5_t5_h17 <= 1;
0 <= u5_t5_h18 <= 1;
0 <= u5_t5_h19 <= 1;
0 <= u5_t5_h20 <= 1;
0 <= u5_t5_h21 <= 1;
0 <= u5_t5_h22 <= 1;
0 <= u5_t5_h23 <= 1;
u5_t5_h16 + u5_t5_h17 + u5_t5_h18 + u5_t5_h19 + u5_t5_h20 + u5_t5_h21 + u5_t5_h22 + u5_t5_h23 = 2;
0 <= u5_t6_h6 <= 1;
0 <= u5_t6_h7 <= 1;
0 <= u5_t6_h8 <= 1;
0 <= u5_t6_h9 <= 1;
0 <= u5_t6_h10 <= 1;
0 <= u5_t6_h11 <= 1;
0 <= u5_t6_h12 <= 1;
0 <= u5_t6_h13 <= 1;
0 <= u5_t6_h14 <= 1;
0 <= u5_t6_h15 <= 1;
0 <= u5_t6_h16 <= 1;
0 <= u5_t6_h17 <= 1;
0 <= u5_t6_h18 <= 1;
u5_t6_h6 + u5_t6_h7 + u5_t6_h8 + u5_t6_h9 + u5_t6_h10 + u5_t6_h11 + u5_t6_h12 + u5_t6_h13 + u5_t6_h14 + u5_t6_h15 + u5_t6_h16 + u5_t6_h17 + u5_t6_h18 = 2;
0 <= u5_t7_h2 <= 1;
0 <= u5_t7_h3 <= 1;
0 <= u5_t7_h4 <= 1;
0 <= u5_t7_h5 <= 1;
0 <= u5_t7_h6 <= 1;
u5_t7_h2 + u5_t7_h3 + u5_t7_h4 + u5_t7_h5 + u5_t7_h6 = 1;
0 <= u5_t8_h13 <= 1;
0 <= u5_t8_h14 <= 1;
0 <= u5_t8_h15 <= 1;
0 <= u5_t8_h16 <= 1;
0 <= u5_t8_h17 <= 1;
u5_t8_h13 + u5_t8_h14 + u5_t8_h15 + u5_t8_h16 + u5_t8_h17 = 3;
0 <= u5_t9_h15 <= 1;
0 <= u5_t9_h16 <= 1;
0 <= u5_t9_h17 <= 1;
0 <= u5_t9_h18 <= 1;
0 <= u5_t9_h19 <= 1;
0 <= u5_t9_h20 <= 1;
0 <= u5_t9_h21 <= 1;
0 <= u5_t9_h22 <= 1;
0 <= u5_t9_h23 <= 1;
u5_t9_h15 + u5_t9_h16 + u5_t9_h17 + u5_t9_h18 + u5_t9_h19 + u5_t9_h20 + u5_t9_h21 + u5_t9_h22 + u5_t9_h23 = 1;
0 <= u5_t10_h17 <= 1;
0 <= u5_t10_h18 <= 1;
0 <= u5_t10_h19 <= 1;
0 <= u5_t10_h20 <= 1;
0 <= u5_t10_h21 <= 1;
0 <= u5_t10_h22 <= 1;
0 <= u5_t10_h23 <= 1;
u5_t10_h17 + u5_t10_h18 + u5_t10_h19 + u5_t10_h20 + u5_t10_h21 + u5_t10_h22 + u5_t10_h23 = 1;
